24° run output:
{
    "Function": "kroB750.tsp",
    "Problem dimension": [
        33,
        714,
        607,
        533,
        484,
        374,
        652,
        271,
        671,
        363,
        560,
        10,
        298,
        600,
        397,
        476,
        693,
        592,
        287,
        284,
        317,
        425,
        608,
        475,
        73,
        192,
        381,
        432,
        411,
        365,
        439,
        332,
        272,
        749,
        63,
        715,
        406,
        596,
        690,
        151,
        383,
        261,
        356,
        232,
        270,
        443,
        43,
        22,
        427,
        613,
        286,
        682,
        644,
        658,
        680,
        473,
        648,
        135,
        689,
        60,
        539,
        444,
        603,
        515,
        649,
        436,
        423,
        78,
        482,
        348,
        265,
        233,
        329,
        472,
        676,
        569,
        610,
        414,
        28,
        452,
        229,
        169,
        506,
        264,
        158,
        337,
        319,
        732,
        679,
        267,
        127,
        360,
        0,
        312,
        729,
        311,
        159,
        421,
        217,
        218,
        338,
        245,
        132,
        247,
        384,
        253,
        106,
        25,
        240,
        290,
        69,
        291,
        493,
        307,
        357,
        677,
        551,
        486,
        101,
        637,
        535,
        722,
        326,
        344,
        412,
        640,
        702,
        497,
        695,
        195,
        390,
        718,
        225,
        730,
        604,
        48,
        585,
        275,
        556,
        504,
        713,
        144,
        489,
        154,
        108,
        91,
        296,
        716,
        524,
        111,
        701,
        87,
        526,
        276,
        213,
        479,
        193,
        548,
        501,
        97,
        283,
        391,
        703,
        126,
        410,
        537,
        737,
        198,
        738,
        552,
        394,
        221,
        302,
        14,
        42,
        426,
        333,
        441,
        687,
        241,
        480,
        558,
        580,
        734,
        37,
        438,
        611,
        39,
        188,
        110,
        47,
        119,
        96,
        449,
        54,
        199,
        81,
        509,
        318,
        662,
        373,
        215,
        210,
        739,
        358,
        496,
        440,
        745,
        76,
        58,
        278,
        538,
        567,
        231,
        650,
        466,
        26,
        340,
        571,
        726,
        654,
        615,
        339,
        207,
        462,
        191,
        525,
        598,
        573,
        540,
        461,
        672,
        67,
        75,
        416,
        694,
        375,
        330,
        113,
        477,
        62,
        125,
        704,
        678,
        46,
        249,
        314,
        620,
        227,
        15,
        401,
        13,
        92,
        522,
        74,
        402,
        543,
        107,
        212,
        228,
        488,
        583,
        104,
        456,
        663,
        316,
        102,
        549,
        322,
        698,
        289,
        105,
        156,
        634,
        137,
        594,
        673,
        80,
        544,
        712,
        566,
        517,
        503,
        200,
        491,
        281,
        617,
        588,
        250,
        24,
        557,
        700,
        82,
        511,
        430,
        153,
        502,
        141,
        618,
        500,
        59,
        437,
        686,
        742,
        385,
        582,
        471,
        572,
        304,
        706,
        645,
        257,
        370,
        699,
        510,
        196,
        622,
        236,
        206,
        303,
        474,
        277,
        424,
        495,
        465,
        711,
        243,
        163,
        656,
        94,
        34,
        478,
        295,
        512,
        354,
        619,
        359,
        259,
        124,
        660,
        597,
        202,
        120,
        306,
        88,
        595,
        710,
        248,
        321,
        165,
        308,
        167,
        629,
        23,
        514,
        463,
        747,
        66,
        398,
        631,
        239,
        590,
        685,
        454,
        624,
        273,
        336,
        224,
        599,
        641,
        741,
        51,
        139,
        584,
        418,
        630,
        294,
        372,
        176,
        161,
        366,
        396,
        386,
        341,
        9,
        429,
        364,
        445,
        661,
        40,
        234,
        186,
        628,
        469,
        587,
        175,
        29,
        448,
        670,
        300,
        563,
        638,
        684,
        122,
        667,
        602,
        162,
        642,
        721,
        320,
        696,
        70,
        541,
        121,
        164,
        529,
        674,
        623,
        561,
        155,
        451,
        744,
        490,
        720,
        521,
        367,
        83,
        168,
        12,
        707,
        98,
        499,
        61,
        204,
        433,
        691,
        351,
        173,
        665,
        226,
        208,
        361,
        8,
        68,
        189,
        632,
        606,
        415,
        542,
        57,
        403,
        664,
        574,
        717,
        103,
        36,
        346,
        148,
        128,
        434,
        355,
        589,
        601,
        93,
        485,
        655,
        347,
        519,
        145,
        455,
        464,
        368,
        297,
        35,
        399,
        647,
        342,
        256,
        116,
        554,
        115,
        50,
        736,
        516,
        4,
        79,
        735,
        651,
        353,
        545,
        605,
        447,
        460,
        379,
        170,
        52,
        90,
        309,
        459,
        183,
        149,
        705,
        746,
        254,
        614,
        205,
        181,
        724,
        89,
        723,
        743,
        422,
        305,
        174,
        731,
        21,
        222,
        19,
        313,
        131,
        378,
        65,
        197,
        513,
        659,
        41,
        266,
        32,
        555,
        575,
        18,
        586,
        520,
        532,
        527,
        184,
        612,
        190,
        458,
        505,
        371,
        470,
        185,
        653,
        453,
        352,
        55,
        334,
        178,
        100,
        11,
        180,
        288,
        223,
        335,
        86,
        280,
        446,
        616,
        49,
        417,
        285,
        591,
        140,
        578,
        274,
        350,
        45,
        636,
        657,
        143,
        633,
        536,
        269,
        376,
        99,
        262,
        389,
        85,
        643,
        171,
        293,
        324,
        407,
        187,
        138,
        564,
        369,
        315,
        395,
        5,
        17,
        400,
        238,
        235,
        565,
        147,
        95,
        172,
        166,
        492,
        625,
        727,
        534,
        328,
        413,
        219,
        44,
        420,
        380,
        209,
        669,
        64,
        668,
        211,
        157,
        467,
        177,
        681,
        733,
        576,
        450,
        442,
        133,
        546,
        179,
        282,
        246,
        435,
        692,
        345,
        719,
        38,
        409,
        268,
        255,
        468,
        160,
        251,
        487,
        142,
        562,
        7,
        327,
        708,
        1,
        109,
        129,
        27,
        725,
        388,
        343,
        56,
        748,
        216,
        53,
        547,
        528,
        688,
        31,
        639,
        621,
        387,
        2,
        518,
        244,
        626,
        242,
        553,
        214,
        683,
        431,
        263,
        260,
        405,
        84,
        728,
        203,
        30,
        740,
        393,
        428,
        570,
        230,
        531,
        182,
        146,
        507,
        150,
        123,
        112,
        325,
        408,
        301,
        481,
        697,
        331,
        117,
        279,
        609,
        349,
        71,
        377,
        16,
        237,
        194,
        118,
        152,
        3,
        568,
        635,
        404,
        593,
        559,
        550,
        134,
        77,
        20,
        362,
        310,
        392,
        201,
        494,
        136,
        666,
        523,
        220,
        457,
        709,
        382,
        252,
        646,
        6,
        114,
        498,
        581,
        258,
        579,
        675,
        483,
        323,
        292,
        130,
        299,
        627,
        419,
        72,
        508,
        530,
        577
    ],
    "Global Optimum": 0,
    "Algorithm": "Genetic algorithm",
    "Parameters": {
        "population": 30,
        "offspring": 30,
        "mutation probability": 0.0013333333333333333,
        "crossover probability": 0.9
    },
    "Fitness": 876871,
    "Solution": [
        33,
        714,
        607,
        533,
        484,
        374,
        652,
        271,
        671,
        363,
        560,
        10,
        298,
        600,
        397,
        476,
        693,
        592,
        287,
        284,
        317,
        425,
        608,
        475,
        73,
        192,
        381,
        432,
        411,
        365,
        439,
        332,
        272,
        749,
        63,
        715,
        406,
        596,
        690,
        151,
        383,
        261,
        356,
        232,
        270,
        443,
        43,
        22,
        427,
        613,
        286,
        682,
        644,
        658,
        680,
        473,
        648,
        135,
        689,
        60,
        539,
        444,
        603,
        515,
        649,
        436,
        423,
        78,
        482,
        348,
        265,
        233,
        329,
        472,
        676,
        569,
        610,
        414,
        28,
        452,
        229,
        169,
        506,
        264,
        158,
        337,
        319,
        732,
        679,
        267,
        127,
        360,
        0,
        312,
        729,
        311,
        159,
        421,
        217,
        218,
        338,
        245,
        132,
        247,
        384,
        253,
        106,
        25,
        240,
        290,
        69,
        291,
        493,
        307,
        357,
        677,
        551,
        486,
        101,
        637,
        535,
        722,
        326,
        344,
        412,
        640,
        702,
        497,
        695,
        195,
        390,
        718,
        225,
        730,
        604,
        48,
        585,
        275,
        556,
        504,
        713,
        144,
        489,
        154,
        108,
        91,
        296,
        716,
        524,
        111,
        701,
        87,
        526,
        276,
        213,
        479,
        193,
        548,
        501,
        97,
        283,
        391,
        703,
        126,
        410,
        537,
        737,
        198,
        738,
        552,
        394,
        221,
        302,
        14,
        42,
        426,
        333,
        441,
        687,
        241,
        480,
        558,
        580,
        734,
        37,
        438,
        611,
        39,
        188,
        110,
        47,
        119,
        96,
        449,
        54,
        199,
        81,
        509,
        318,
        662,
        373,
        215,
        210,
        739,
        358,
        496,
        440,
        745,
        76,
        58,
        278,
        538,
        567,
        231,
        650,
        466,
        26,
        340,
        571,
        726,
        654,
        615,
        339,
        207,
        462,
        191,
        525,
        598,
        573,
        540,
        461,
        672,
        67,
        75,
        416,
        694,
        375,
        330,
        113,
        477,
        62,
        125,
        704,
        678,
        46,
        249,
        314,
        620,
        227,
        15,
        401,
        13,
        92,
        522,
        74,
        402,
        543,
        107,
        212,
        228,
        488,
        583,
        104,
        456,
        663,
        316,
        102,
        549,
        322,
        698,
        289,
        105,
        156,
        634,
        137,
        594,
        673,
        80,
        544,
        712,
        566,
        517,
        503,
        200,
        491,
        281,
        617,
        588,
        250,
        24,
        557,
        700,
        82,
        511,
        430,
        153,
        502,
        141,
        618,
        500,
        59,
        437,
        686,
        742,
        385,
        582,
        471,
        572,
        304,
        706,
        645,
        257,
        370,
        699,
        510,
        196,
        622,
        236,
        206,
        303,
        474,
        277,
        424,
        495,
        465,
        711,
        243,
        163,
        656,
        94,
        34,
        478,
        295,
        512,
        354,
        619,
        359,
        259,
        124,
        660,
        597,
        202,
        120,
        306,
        88,
        595,
        710,
        248,
        321,
        165,
        308,
        167,
        629,
        23,
        514,
        463,
        747,
        66,
        398,
        631,
        239,
        590,
        685,
        454,
        624,
        273,
        336,
        224,
        599,
        641,
        741,
        51,
        139,
        584,
        418,
        630,
        294,
        372,
        176,
        161,
        366,
        396,
        386,
        341,
        9,
        429,
        364,
        445,
        661,
        40,
        234,
        186,
        628,
        469,
        587,
        175,
        29,
        448,
        670,
        300,
        563,
        638,
        684,
        122,
        667,
        602,
        162,
        642,
        721,
        320,
        696,
        70,
        541,
        121,
        164,
        529,
        674,
        623,
        561,
        155,
        451,
        744,
        490,
        720,
        521,
        367,
        83,
        168,
        12,
        707,
        98,
        499,
        61,
        204,
        433,
        691,
        351,
        173,
        665,
        226,
        208,
        361,
        8,
        68,
        189,
        632,
        606,
        415,
        542,
        57,
        403,
        664,
        574,
        717,
        103,
        36,
        346,
        148,
        128,
        434,
        355,
        589,
        601,
        93,
        485,
        655,
        347,
        519,
        145,
        455,
        464,
        368,
        297,
        35,
        399,
        647,
        342,
        256,
        116,
        554,
        115,
        50,
        736,
        516,
        4,
        79,
        735,
        651,
        353,
        545,
        605,
        447,
        460,
        379,
        170,
        52,
        90,
        309,
        459,
        183,
        149,
        705,
        746,
        254,
        614,
        205,
        181,
        724,
        89,
        723,
        743,
        422,
        305,
        174,
        731,
        21,
        222,
        19,
        313,
        131,
        378,
        65,
        197,
        513,
        659,
        41,
        266,
        32,
        555,
        575,
        18,
        586,
        520,
        532,
        527,
        184,
        612,
        190,
        458,
        505,
        371,
        470,
        185,
        653,
        453,
        352,
        55,
        334,
        178,
        100,
        11,
        180,
        288,
        223,
        335,
        86,
        280,
        446,
        616,
        49,
        417,
        285,
        591,
        140,
        578,
        274,
        350,
        45,
        636,
        657,
        143,
        633,
        536,
        269,
        376,
        99,
        262,
        389,
        85,
        643,
        171,
        293,
        324,
        407,
        187,
        138,
        564,
        369,
        315,
        395,
        5,
        17,
        400,
        238,
        235,
        565,
        147,
        95,
        172,
        166,
        492,
        625,
        727,
        534,
        328,
        413,
        219,
        44,
        420,
        380,
        209,
        669,
        64,
        668,
        211,
        157,
        467,
        177,
        681,
        733,
        576,
        450,
        442,
        133,
        546,
        179,
        282,
        246,
        435,
        692,
        345,
        719,
        38,
        409,
        268,
        255,
        468,
        160,
        251,
        487,
        142,
        562,
        7,
        327,
        708,
        1,
        109,
        129,
        27,
        725,
        388,
        343,
        56,
        748,
        216,
        53,
        547,
        528,
        688,
        31,
        639,
        621,
        387,
        2,
        518,
        244,
        626,
        242,
        553,
        214,
        683,
        431,
        263,
        260,
        405,
        84,
        728,
        203,
        30,
        740,
        393,
        428,
        570,
        230,
        531,
        182,
        146,
        507,
        150,
        123,
        112,
        325,
        408,
        301,
        481,
        697,
        331,
        117,
        279,
        609,
        349,
        71,
        377,
        16,
        237,
        194,
        118,
        152,
        3,
        568,
        635,
        404,
        593,
        559,
        550,
        134,
        77,
        20,
        362,
        310,
        392,
        201,
        494,
        136,
        666,
        523,
        220,
        457,
        709,
        382,
        252,
        646,
        6,
        114,
        498,
        581,
        258,
        579,
        675,
        483,
        323,
        292,
        130,
        299,
        627,
        419,
        72,
        508,
        530,
        577
    ],
    "Nb of functions evaluations": 400020,
    "Computational time in seconds": 3174.290237903595,
    "Stopping criterion in evaluations": 400000
}